Route 1: 21 41 15 14 43 12 28

Route 2: 47 49 36 8 18 46 45 5

Route 3: 40 6 44 38 16 37 17

Route 4: 27 11 7 1 48 19

Route 5: 26 50 34 9 35 33 20 10

Route 6: 42 23 39 4 25

Route 7: 31 32 30 3 29 24 22

Route 8: 13 2

Vehicles: 8

Distance: 987.97

